3 
4  58 
5  20 36 50 59 
6  04 09 14 20 24 30 34 39 44 49 54 59 
7  05 09 15 19 24 29 34 39 44 49 54 59 
8  04 09 14 19 24 29 34 39 44 49 54 59 
9  07 14 22 29 37 45 53 
10  00 08 17 24 32 39 47 54 
11  02 09 17 24 32 39 47 54 
12  02 09 17 24 32 39 47 54 
13  02 09 17 24 32 39 47 54 
14  02 09 17 24 33 40 45 50 55 
15  00 05 09 15 20 24 30 35 39 45 50 54 
16  00 05 09 15 20 24 30 35 39 45 50 54 
17  00 05 09 15 20 24 30 35 39 45 50 54 
18  00 05 09 15 20 24 30 35 39 45 50 59 
19  04 11 18 26 34 41 50 59 
20  08 16 23 30 38 46 53 
21  01 08 16 23 31 38 50 
22  05 20 35 50 
23  05 20 
0 
